366,177
521,325
761,446
918,369
776,219
749,273
690,347
727,264
708,353
554,279
681,-134
464,-21
444,369
368,305
468,298
533,429
576,551
545,673
737,761
898,833
364,842
178,485
196,249
561,36
817,139
999,88
1194,572
914,639
399,794
448,639
975,555
1051,526
766,379
740,397
